6299 5701 747
3672 7328 805
2931 8069 675
4179 7821 705
6716 6284 711
7163 5837 620
4333 7667 749
4552 6448 806
7419 4581 571
5963 7037 740
7007 5993 555
3289 7711 747
4736 7264 797
4060 6940 816
7143 5857 630
5153 6847 791
5560 7440 692
